data/MCDM/NO_CORR/GEN_FROM_60/16_ITEMS_1000_GEN/K5016W04.KNP.mps
NAME          BLANK   
ROWS
 N  OBJROW
 L  R0000000
COLUMNS
    C0000000  OBJROW     -708.         R0000000  224.        
    C0000001  OBJROW     -447.         R0000000  299.        
    C0000002  OBJROW     -799.         R0000000  301.        
    C0000003  OBJROW     -394.         R0000000  116.        
    C0000004  OBJROW     -376.         R0000000  516.        
    C0000005  OBJROW     -74.          R0000000  623.        
    C0000006  OBJROW     -489.         R0000000  562.        
    C0000007  OBJROW     -586.         R0000000  217.        
    C0000008  OBJROW     -876.         R0000000  706.        
    C0000009  OBJROW     -170.         R0000000  136.        
    C0000010  OBJROW     -51.          R0000000  897.        
    C0000011  OBJROW     -24.          R0000000  449.        
    C0000012  OBJROW     -697.         R0000000  607.        
    C0000013  OBJROW     -986.         R0000000  986.        
    C0000014  OBJROW     -114.         R0000000  610.        
    C0000015  OBJROW     -826.         R0000000  974.        
RHS
    RHS       R0000000  15344.      
BOUNDS
 BV BOUND     C0000000  1.          
 BV BOUND     C0000001  1.          
 BV BOUND     C0000002  1.          
 BV BOUND     C0000003  1.          
 BV BOUND     C0000004  1.          
 BV BOUND     C0000005  1.          
 BV BOUND     C0000006  1.          
 BV BOUND     C0000007  1.          
 BV BOUND     C0000008  1.          
 BV BOUND     C0000009  1.          
 BV BOUND     C0000010  1.          
 BV BOUND     C0000011  1.          
 BV BOUND     C0000012  1.          
 BV BOUND     C0000013  1.          
 BV BOUND     C0000014  1.          
 BV BOUND     C0000015  1.          
ENDATA
