data/MCDM/NO_CORR/GEN_FROM_60/16_ITEMS_1000_GEN/K5016W04.KNP.txt
N 16
M 17
LC 16
LC 17
LC 18
LC 19
LC 20
LC 21
LC 22
LC 23
LC 24
LC 25
LC 26
LC 27
LC 28
LC 29
LC 30
LC 31
LR 1
LR 2
LR 3
LR 4
LR 5
LR 6
LR 7
LR 8
LR 9
LR 10
LR 11
LR 12
LR 13
LR 14
LR 15
LR 16
LR 17
LO -708
LO -447
LO -799
LO -394
LO -376
LO -74
LO -489
LO -586
LO -876
LO -170
LO -51
LO -24
LO -697
LO -986
LO -114
LO -826
OS 1
IC 602
IC 553
IC 553
IC 602
IC 564
IC 15
IC 439
IC 500
IC 158
IC 143
IC 237
IC 429
IC 766
IC 743
IC 697
IC 999
IB 4000
